letting input=[24,51,24,41,57,7,28,39,52,65,14,70,2,9,26,31,7,64,64,69,34,10,46,9,26,20,35,31,29,51,49,53,33,57,58]
letting output=[26,11,11,6,34,40,38,43,13,19,50,49,45,42,44,6,12,22,46,32,40,9,43,9,19]
letting MAX_OPS=376
letting num_registers=1
